p tw 42 71
1 2
1 7
7 8
7 13
13 14
13 19
19 20
19 25
25 26
25 31
31 32
31 37
37 38
2 3
2 8
8 9
8 14
14 15
14 20
20 21
20 26
26 27
26 32
32 33
32 38
38 39
3 4
3 9
9 10
9 15
15 16
15 21
21 22
21 27
27 28
27 33
33 34
33 39
39 40
4 5
4 10
10 11
10 16
16 17
16 22
22 23
22 28
28 29
28 34
34 35
34 40
40 41
5 6
5 11
11 12
11 17
17 18
17 23
23 24
23 29
29 30
29 35
35 36
35 41
41 42
6 12
12 18
18 24
24 30
30 36
36 42
